10
 9999 81  50  18  75  39 107  77  87  43
 73  9999 76  21  37  26  34  58  66  15
 45  62  9999 24  14  58 100  68  33  30
 21  35  39  9999 19  58  68  62  84  81
 61  57  45  99  9999 31  60  65  29  91
 41  31  65  62  48  9999 64  21  42  46
 91  22  94  55  53  52  9999 15  55  16
 81  64  71  75  72  35  29  9999 17  34
 71  52  21  78  79  35  41  37  9999 68
 51  29  43  91 102  96  25  41  72   9999

